tsp_instances/TSP50/instance41.tsp
NODE_COORD_SECTION
0 181 176
1 41 79
2 33 0
3 137 191
4 44 22
5 39 14
6 159 171
7 117 54
8 175 171
9 38 126
10 151 34
11 52 147
12 24 115
13 36 138
14 179 97
15 110 27
16 94 116
17 74 157
18 31 194
19 142 9
20 34 159
21 110 188
22 134 157
23 48 34
24 109 183
25 147 159
26 175 1
27 186 64
28 77 79
29 144 123
30 77 122
31 200 86
32 20 81
33 16 49
34 59 35
35 177 166
36 178 198
37 146 78
38 62 144
39 190 153
40 19 76
41 193 45
42 98 144
43 43 72
44 105 115
45 129 199
46 88 59
47 168 55
48 38 117
49 115 129
