tsp_instances/TSP50/instance41.opt.tour
TOUR_SECTION
1
37
4
46
22
25
43
50
45
17
31
18
39
12
19
21
14
10
49
13
33
41
34
3
6
5
24
35
44
2
29
47
8
16
20
27
11
48
42
28
32
15
38
30
23
26
7
9
36
40
-1